c Reduced graph for anna_0 generated by Cyril Grelier
p edge 79 355
e 1 2
e 1 3
e 1 4
e 1 5
e 1 6
e 1 7
e 1 8
e 1 9
e 1 10
e 1 11
e 1 12
e 1 13
e 1 14
e 1 15
e 1 16
e 1 17
e 1 18
e 1 20
e 1 21
e 1 23
e 1 24
e 1 25
e 1 27
e 1 29
e 1 31
e 1 32
e 1 35
e 1 38
e 1 40
e 1 41
e 1 43
e 1 45
e 1 51
e 1 52
e 1 53
e 1 61
e 1 63
e 1 64
e 1 66
e 1 68
e 1 69
e 1 74
e 1 76
e 1 77
e 1 78
e 2 3
e 2 4
e 2 5
e 2 6
e 2 7
e 2 8
e 2 9
e 2 10
e 2 11
e 2 13
e 2 14
e 2 17
e 2 18
e 2 19
e 2 21
e 2 22
e 2 26
e 2 27
e 2 28
e 2 34
e 2 36
e 2 37
e 2 41
e 2 43
e 2 46
e 2 47
e 2 48
e 2 52
e 2 54
e 2 55
e 2 57
e 2 59
e 2 60
e 2 62
e 2 67
e 2 70
e 2 73
e 2 75
e 3 4
e 3 5
e 3 6
e 3 7
e 3 8
e 3 9
e 3 10
e 3 11
e 3 12
e 3 13
e 3 14
e 3 15
e 3 17
e 3 18
e 3 19
e 3 20
e 3 21
e 3 23
e 3 24
e 3 25
e 3 29
e 3 32
e 3 33
e 3 36
e 3 38
e 3 41
e 3 43
e 3 46
e 3 47
e 3 48
e 3 52
e 3 61
e 3 69
e 4 5
e 4 6
e 4 7
e 4 8
e 4 9
e 4 10
e 4 11
e 4 12
e 4 13
e 4 14
e 4 15
e 4 16
e 4 18
e 4 20
e 4 21
e 4 22
e 4 23
e 4 24
e 4 25
e 4 27
e 4 29
e 4 31
e 4 32
e 4 37
e 4 38
e 4 40
e 4 45
e 4 49
e 4 51
e 4 55
e 4 56
e 5 6
e 5 9
e 5 12
e 5 13
e 5 14
e 5 15
e 5 17
e 5 19
e 5 21
e 5 22
e 5 26
e 5 30
e 5 33
e 5 34
e 5 36
e 5 37
e 5 39
e 5 42
e 5 44
e 5 46
e 5 48
e 5 50
e 5 52
e 5 55
e 5 58
e 5 59
e 5 62
e 5 72
e 6 7
e 6 8
e 6 9
e 6 10
e 6 11
e 6 12
e 6 14
e 6 15
e 6 16
e 6 18
e 6 20
e 6 21
e 6 23
e 6 24
e 6 25
e 6 27
e 6 29
e 6 31
e 6 34
e 6 35
e 6 38
e 6 40
e 6 45
e 6 53
e 6 65
e 6 71
e 7 8
e 7 9
e 7 10
e 7 11
e 7 12
e 7 13
e 7 15
e 7 16
e 7 18
e 7 20
e 7 21
e 7 23
e 7 24
e 7 25
e 7 29
e 7 46
e 7 47
e 8 9
e 8 10
e 8 11
e 8 12
e 8 15
e 8 16
e 8 20
e 8 21
e 8 23
e 8 24
e 8 27
e 8 29
e 8 65
e 8 71
e 9 11
e 9 19
e 9 20
e 9 23
e 9 24
e 9 26
e 9 33
e 9 36
e 9 48
e 9 50
e 9 58
e 10 14
e 10 16
e 10 25
e 10 27
e 10 31
e 10 34
e 10 35
e 10 40
e 10 45
e 11 16
e 11 17
e 11 20
e 11 23
e 11 24
e 11 41
e 11 43
e 12 14
e 12 15
e 12 16
e 12 21
e 12 29
e 12 49
e 12 56
e 13 14
e 13 18
e 13 22
e 13 37
e 13 63
e 13 64
e 13 66
e 13 68
e 14 16
e 14 17
e 14 22
e 14 37
e 15 21
e 15 32
e 15 49
e 15 51
e 15 56
e 16 25
e 16 35
e 16 53
e 17 22
e 17 28
e 17 41
e 17 43
e 17 54
e 17 57
e 18 28
e 18 38
e 18 47
e 18 67
e 19 22
e 19 26
e 19 30
e 19 39
e 19 42
e 19 44
e 19 48
e 20 23
e 20 24
e 20 32
e 21 36
e 22 26
e 22 30
e 22 37
e 23 24
e 25 31
e 25 35
e 26 30
e 26 39
e 26 42
e 26 44
e 27 34
e 27 38
e 28 54
e 28 57
e 28 60
e 28 67
e 28 70
e 30 39
e 30 42
e 30 44
e 31 40
e 31 45
e 32 49
e 32 51
e 33 36
e 33 50
e 33 58
e 34 79
e 35 53
e 39 42
e 39 44
e 40 45
e 41 43
e 42 44
e 46 47
e 49 56
e 50 58
e 54 57
e 55 72
e 59 62
e 60 70
e 61 69
e 63 68
e 64 66
e 65 71
e 73 75
e 74 78
e 76 77
